40 40
20
3 3 26 0
3 4 37 8
3 5 22 22
3 6 22 27
3 7 22 33
3 8 37 0
3 9 26 3
3 10 26 12
3 12 37 28
3 16 37 12
3 40 34 0
4 4 25 22
4 14 25 26
4 22 22 0
5 3 29 25
5 4 29 28
5 8 29 32
5 12 29 0
5 13 29 12
22 40 0 0
